
c turning on binary mode checking

c parsing input formula with 6752 variables and 27610 clauses

c finished parsing, read 20670 bytes from proof file

c detected empty clause; start verification via backward checking

c 2317 of 27610 clauses in core                            

c 91 of 5016 lemmas in core using 19556 resolution steps

c 0 RAT lemmas in core; 3 redundant literals in core lemmas

s VERIFIED

c verification time: 0.062 seconds
